shikaku_converter/resources/data/25×25_0.dzn
size_x = 25;
size_y = 25;

given = [|
1, 1, 4|
1, 3, 2|
1, 6, 3|
1, 17, 11|
1, 20, 4|
1, 25, 3|
2, 2, 5|
3, 11, 40|
3, 15, 26|
4, 14, 2|
4, 17, 8|
4, 21, 3|
5, 14, 2|
6, 2, 2|
6, 5, 4|
6, 10, 11|
6, 22, 2|
6, 25, 6|
7, 8, 5|
7, 12, 4|
7, 16, 2|
7, 23, 10|
8, 10, 3|
9, 7, 6|
9, 9, 4|
9, 23, 2|
10, 7, 3|
10, 13, 12|
10, 21, 36|
11, 12, 5|
11, 22, 14|
13, 1, 16|
13, 14, 66|
14, 19, 19|
17, 15, 17|
17, 24, 33|
20, 17, 32|
21, 18, 17|
21, 23, 3|
22, 1, 3|
22, 5, 68|
22, 6, 36|
23, 14, 9|
23, 19, 3|
23, 25, 4|
24, 7, 3|
24, 22, 9|
25, 5, 12|
25, 7, 3|
25, 17, 24|
25, 24, 4|];
