shikaku_converter/resources/tasks/25×25_0.txt
4a2b3j11b4d3a5zg40c26w2b8c3q2l2b4d11k2b6g5c4c2f10k3u6a4m2h3e12g36o5i14zb16l66zc19zzr17h33zzo32y17d3b3c68_36zf9d3e4f3n9g12a3i24f4a